
x = 100;
y = 200;
c = 20000;
n = 251;
w = [729 484 25 25 25 25 4 4 1 1 4096 1296 784 64 64 64 16 16 400 49 49 36 1 1 1 1 1 1 121 1 1 1 1 1 1 1 1 1 1 1 25 25 25 9 4 1 1 121 1 1 1 1 1 1 1 1 1 1 1 2025 900 225 225 16 4 4 36 4 4 4 9 9 9 9 9 9 1 1 1 361 144 49 25 4 4 1 1 1764 4 4 4 4 4 4 4 4 4 4 4 4 4 4 4 4 4 4 4 4 4 121 121 121 81 4 4 4 4 1 1 36 1 1 1 1 1 1 900 9 9 9 9 9 9 9 9 9 9 625 64 64 64 1 1 1 1 1 1 1 1 81 4 4 4 4 1 1 49 4 4 4 1 1 1 1 1 1 1 1 1 1 1 1 1 1 1 1 1 1 1 1 324 1 1 1 1 1 1 1 1 1 1 1 1 1 1 1 1 1 1 9 4 1 1 9 4 1 1 361 225 16 16 16 9 1 1 1 1024 4 4 4 4 4 4 4 4 4 4 4 4 4 4 4 4 529 16 16 16 16 16 9 1 1 1 64 64 64 9 9 4 1 1];
p = [729 484 25 25 25 25 4 4 1 1 4096 1296 784 64 64 64 16 16 400 49 49 36 1 1 1 1 1 1 121 1 1 1 1 1 1 1 1 1 1 1 25 25 25 9 4 1 1 121 1 1 1 1 1 1 1 1 1 1 1 2025 900 225 225 16 4 4 36 4 4 4 9 9 9 9 9 9 1 1 1 361 144 49 25 4 4 1 1 1764 4 4 4 4 4 4 4 4 4 4 4 4 4 4 4 4 4 4 4 4 4 121 121 121 81 4 4 4 4 1 1 36 1 1 1 1 1 1 900 9 9 9 9 9 9 9 9 9 9 625 64 64 64 1 1 1 1 1 1 1 1 81 4 4 4 4 1 1 49 4 4 4 1 1 1 1 1 1 1 1 1 1 1 1 1 1 1 1 1 1 1 1 324 1 1 1 1 1 1 1 1 1 1 1 1 1 1 1 1 1 1 9 4 1 1 9 4 1 1 361 225 16 16 16 9 1 1 1 1024 4 4 4 4 4 4 4 4 4 4 4 4 4 4 4 4 529 16 16 16 16 16 9 1 1 1 64 64 64 9 9 4 1 1];
s = [27 22 5 5 5 5 2 2 1 1 64 36 28 8 8 8 4 4 20 7 7 6 1 1 1 1 1 1 11 1 1 1 1 1 1 1 1 1 1 1 5 5 5 3 2 1 1 11 1 1 1 1 1 1 1 1 1 1 1 45 30 15 15 4 2 2 6 2 2 2 3 3 3 3 3 3 1 1 1 19 12 7 5 2 2 1 1 42 2 2 2 2 2 2 2 2 2 2 2 2 2 2 2 2 2 2 2 2 2 11 11 11 9 2 2 2 2 1 1 6 1 1 1 1 1 1 30 3 3 3 3 3 3 3 3 3 3 25 8 8 8 1 1 1 1 1 1 1 1 9 2 2 2 2 1 1 7 2 2 2 1 1 1 1 1 1 1 1 1 1 1 1 1 1 1 1 1 1 1 1 18 1 1 1 1 1 1 1 1 1 1 1 1 1 1 1 1 1 1 3 2 1 1 3 2 1 1 19 15 4 4 4 3 1 1 1 32 2 2 2 2 2 2 2 2 2 2 2 2 2 2 2 2 23 4 4 4 4 4 3 1 1 1 8 8 8 3 3 2 1 1];

